<instance format="XCSP3" type="COP">
  <variables>
    <array id="x" size="[40]"> 0 1 </array>
  </variables>
  <constraints>
    <sum>
      <list> x[] </list>
      <coeffs> 29 25 8 2 6 9 29 12 17 4 21 6 2 23 35 6 29 26 9 11 12 4 35 9 6 2 30 29 32 32 20 32 18 6 37 13 5 3 29 26 </coeffs>
      <condition> (le,150) </condition>
    </sum>
  </constraints>
  <objectives>
    <maximize type="sum">
      <list> x[] </list>
      <coeffs> 3 56 59 20 43 41 35 84 37 68 60 67 99 32 100 10 59 3 71 74 15 63 95 14 35 57 39 27 95 48 92 37 36 89 34 72 9 24 6 20 </coeffs>
    </maximize>
  </objectives>
</instance>
